1068
1068
1068
1108
1065
1045
1045
1045
1029
1090
1119
1075
1047
1047
1026
1026
1026
1026
979
979
979
989
989
989
989
989
1023
1023
1023
1023
985
985
985
987
1012
951
1038
1038
916
916
916
1017
1017
1017
965
933
933
889
945
945
945
945
867
867
881
1023
878
878
1017
949
949
1005
912
938
955
950
1066
998
1035
931
915
931
931
974
1006
1006
941
1006
980
980
980
992
992
980
946
946
946
946
946
946
1019
1019
1001
1020
1031
904
904
1031
1031
1055
947
947
799
799
938
938
938
938
938
938
938
1001
1001
1052
1006
947
1006
1035
1035
974
951
949
949
950
931
931
989
928
961
859
971
971
971
971
971
971
955
920
920
920
920
920
920
1012
951
951
1000
909
924
884
943
829
829
829
829
921
921
944
944
912
994
972
972
914
914
887
887
858
858
858
858
931
866
866
916
916
958
958
917
952
931
902
902
900
900
900
945
892
892
904
931
948
901
974
974
974
938
929
974
974
